4,1,1,1,13,3,3,2,14,2,10,2,12,3,6,3,2,1,9,2,15,3,11,2,7,3,5,3,8,4;6,1,13,2,4,2,5,2,15,2,1,3,10,3,3,4,7,2,2,2,14,5,9,4,11,3,12,5,8,5;6,2,8,1,13,4,12,2,3,3,7,1,14,4,4,5,9,3,15,4,1,5,2,5,11,4,10,5,5,4;3,1,5,1,12,1,8,2,13,5,14,3,4,4,1,4,10,4,6,5,2,4,15,5,9,5,7,5,11,5;13,1,10,1,14,1,15,1,1,2,4,3,9,1,12,4,6,4,11,1,2,3,3,5,8,3,7,4,5,5;
